CapLotSizing_PM/src/Instancias/NCLSHT/6i18p4m/NBA08.dat
6 18 4
 1
       721
       721
       721
       721
    2
     3
     2
     2
     3
     2
   4.9  65.5   609    18 
  4.4  57.2   310    23 
  4.6  59.9   212    23 
  2.5  41.5   146    24 
  1.2  62.3   269    21 
  2.3  66.1   737    19 
  3.5  34.2   360    18 
  4.6  16.7   116    19 
  3.9  66.5    71    19 
  4.4  68.9   621    16 
  3.5  63.5   796    23 
  3.2  17.3   874    20 
  1.7  61.2   648    16 
  3.7  42.0   288    21 
  3.2  34.0    54    17 
  3.9  67.8   299    22 
  3.8  52.7   653    19 
  2.7  25.2   922    19 
  4.4  53.2   863    17 
  1.2  62.6   851    17 
  4.3  49.3   152    15 
  2.5  38.4   901    17 
  3.7  19.5   137    21 
  3.3  69.8   226    17 
  134     9   159    49    15     8 
   67    38    58    80   139     8 
   52   118    11    33    48    18 
   47    57   107   165    92   112 
  137    35   141   148   179    82 
  112   141   117   158    83    48 
  146   118    25   166    70    13 
    8    87   168    75   136    79 
   53    63    46    93    79    27 
   23    74    42    55   170    76 
   11   174    86    43   160     5 
   50    82     8    92    10    74 
   33    42   132    56   133   134 
   59   117   175   100    72   150 
  164    27     6    22     5    58 
   94     7   124   111    73    53 
   37   160     9    74   130    83 
   69   144   123     6    99   120 
