CapLotSizing_PM/src/Instancias/NCLSHT/6i18p4m/NBA08.OUT
 CG ITER, OVMR, OVMRUB =           1   20668.0625000   19877.2968750
 CG ITER, OVMR, OVMRUB =           2   19877.2968750   19877.2968750
 CG ITER, OVMR, OVMRUB =           3   19877.2968750   19877.2968750
 CG ITER, OVMR, OVMRUB =           4   19877.2968750   19877.2968750
 CG ITER, OVMR, OVMRUB =           5   19391.2519531   19584.6035156
 CG ITER, OVMR, OVMRUB =           6   17587.7167969   19584.6035156
 CG ITER, OVMR, OVMRUB =           7   17547.5273438   19584.6035156
 CG ITER, OVMR, OVMRUB =           8   16852.2519531   19584.6035156
 CG ITER, OVMR, OVMRUB =           9   15868.4892578   19584.6035156
 CG ITER, OVMR, OVMRUB =          10   15622.3408203   19584.6035156
 CG ITER, OVMR, OVMRUB =          11   15728.4853516   19584.6035156
 CG ITER, OVMR, OVMRUB =          12   15807.1982422   19584.6035156
 CG ITER, OVMR, OVMRUB =          13   15890.1035156   19584.6035156
 CG ITER, OVMR, OVMRUB =          14   15961.0673828   19584.6035156
 CG ITER, OVMR, OVMRUB =          15   15909.2490234   19584.6035156
 CG ITER, OVMR, OVMRUB =          16   15810.3818359   19455.3125000
 CG ITER, OVMR, OVMRUB =          17   15769.5615234   19455.3125000
 CG ITER, OVMR, OVMRUB =          18   15836.9013672   19455.3125000
 CG ITER, OVMR, OVMRUB =          19   15886.1103516   19455.3125000
 CG ITER, OVMR, OVMRUB =          20   15883.9052734   19455.3125000
 CG ITER, OVMR, OVMRUB =          21   15930.8691406   19455.3125000
 CG ITER, OVMR, OVMRUB =          22   15973.0654297   19455.3125000
 CG ITER, OVMR, OVMRUB =          23   16010.8398438   19455.3125000
 CG ITER, OVMR, OVMRUB =          24   16040.8203125   19455.3125000
 CG ITER, OVMR, OVMRUB =          25   16074.1933594   19455.3125000
 CG ITER, OVMR, OVMRUB =          26   16103.2939453   19455.3125000
 CG ITER, OVMR, OVMRUB =          27   16133.7695312   19455.3125000
 CG ITER, OVMR, OVMRUB =          28   16170.4902344   19455.3125000
 CG ITER, OVMR, OVMRUB =          29   16198.6738281   19455.3125000
 CG ITER, OVMR, OVMRUB =          30   16232.0830078   19455.3125000
 CG ITER, OVMR, OVMRUB =          31   16255.3886719   19455.3125000
 CG ITER, OVMR, OVMRUB =          32   16284.7578125   19455.3125000
 CG ITER, OVMR, OVMRUB =          33   16307.0615234   19455.3125000
 CG ITER, OVMR, OVMRUB =          34   16337.5087891   19455.3125000
 CG ITER, OVMR, OVMRUB =          35   16361.5566406   19455.3125000
 CG ITER, OVMR, OVMRUB =          36   16386.1835938   19455.3125000
 CG ITER, OVMR, OVMRUB =          37   16410.2656250   19455.3125000
 CG ITER, OVMR, OVMRUB =          38   16435.7265625   19455.3125000
 CG ITER, OVMR, OVMRUB =          39   16459.5996094   19455.3125000
 CG ITER, OVMR, OVMRUB =          40   16483.7753906   19455.3125000
 CG ITER, OVMR, OVMRUB =          41   16512.8085938   19455.3125000
 CG ITER, OVMR, OVMRUB =          42   16535.0878906   19455.3125000
 CG ITER, OVMR, OVMRUB =          43   16560.1738281   19455.3125000
 CG ITER, OVMR, OVMRUB =          44   16582.1308594   19455.3125000
 CG ITER, OVMR, OVMRUB =          45   16604.3164062   19455.3125000
 CG ITER, OVMR, OVMRUB =          46   16625.1757812   19455.3125000
 CG ITER, OVMR, OVMRUB =          47   16651.2910156   19455.3125000
 CG ITER, OVMR, OVMRUB =          48   16678.5292969   19455.3125000
 CG ITER, OVMR, OVMRUB =          49   16699.6953125   19455.3125000
 CG ITER, OVMR, OVMRUB =          50   16719.4296875   19455.3125000
 CG ITER, OVMR, OVMRUB =          51   16737.5039062   19455.3125000
 CG ITER, OVMR, OVMRUB =          52   16757.5097656   19455.3125000
 CG ITER, OVMR, OVMRUB =          53   16780.7675781   19455.3125000
 CG ITER, OVMR, OVMRUB =          54   16804.7246094   19455.3125000
 CG ITER, OVMR, OVMRUB =          55   16824.1074219   19455.3125000
 CG ITER, OVMR, OVMRUB =          56   16843.0605469   19455.3125000
 CG ITER, OVMR, OVMRUB =          57   16862.9765625   19455.3125000
 CG ITER, OVMR, OVMRUB =          58   16881.0195312   19455.3125000
 CG ITER, OVMR, OVMRUB =          59   16900.2304688   19455.3125000
 CG ITER, OVMR, OVMRUB =          60   16922.4667969   19455.3125000
 CG ITER, OVMR, OVMRUB =          61   16939.5253906   19455.3125000
 CG ITER, OVMR, OVMRUB =          62   16956.8710938   19455.3125000
 CG ITER, OVMR, OVMRUB =          63   16976.3574219   19455.3125000
 CG ITER, OVMR, OVMRUB =          64   16990.4453125   19455.3125000
 CG ITER, OVMR, OVMRUB =          65   17010.7500000   19455.3125000
 CG ITER, OVMR, OVMRUB =          66   17032.4804688   19455.3125000
 CG ITER, OVMR, OVMRUB =          67   17053.0781250   19455.3125000
 CG ITER, OVMR, OVMRUB =          68   17071.1640625   19455.3125000
 CG ITER, OVMR, OVMRUB =          69   17087.9804688   19455.3125000
 CG ITER, OVMR, OVMRUB =          70   17109.7636719   19455.3125000
 CG ITER, OVMR, OVMRUB =          71   17122.4980469   19455.3125000
 CG ITER, OVMR, OVMRUB =          72   17140.5351562   19455.3125000
 CG ITER, OVMR, OVMRUB =          73   17156.2050781   19455.3125000
 CG ITER, OVMR, OVMRUB =          74   17174.7558594   19455.3125000
 CG ITER, OVMR, OVMRUB =          75   17194.2773438   19455.3125000
 CG ITER, OVMR, OVMRUB =          76   17210.4492188   19455.3125000
 CG ITER, OVMR, OVMRUB =          77   17231.2265625   19455.3125000
 CG ITER, OVMR, OVMRUB =          78   17247.5996094   19455.3125000
 CG ITER, OVMR, OVMRUB =          79   17264.7968750   19455.3125000
 CG ITER, OVMR, OVMRUB =          80   17284.1621094   19455.3125000
 CG ITER, OVMR, OVMRUB =          81   17296.6074219   19455.3125000
 CG ITER, OVMR, OVMRUB =          82   17316.5390625   19455.3125000
 CG ITER, OVMR, OVMRUB =          83   17332.8730469   19455.3125000
 CG ITER, OVMR, OVMRUB =          84   17347.4804688   19455.3125000
 CG ITER, OVMR, OVMRUB =          85   17367.2109375   19455.3125000
 CG ITER, OVMR, OVMRUB =          86   17383.2597656   19455.3125000
 CG ITER, OVMR, OVMRUB =          87   17400.2343750   19455.3125000
 CG ITER, OVMR, OVMRUB =          88   17414.3105469   19455.3125000
 CG ITER, OVMR, OVMRUB =          89   17428.0371094   19455.3125000
 CG ITER, OVMR, OVMRUB =          90   17443.6601562   19455.3125000
 CG ITER, OVMR, OVMRUB =          91   17463.7753906   19455.3125000
 CG ITER, OVMR, OVMRUB =          92   17477.1953125   19455.3125000
 CG ITER, OVMR, OVMRUB =          93   17494.9863281   19455.3125000
 CG ITER, OVMR, OVMRUB =          94   17510.4882812   19455.3125000
 CG ITER, OVMR, OVMRUB =          95   17524.6757812   19455.3125000
 CG ITER, OVMR, OVMRUB =          96   17539.0410156   19455.3125000
 CG ITER, OVMR, OVMRUB =          97   17544.0742188   19455.3125000
 CG ITER, OVMR, OVMRUB =          98   17456.7285156   19455.3125000
 CG ITER, OVMR, OVMRUB =          99   17464.1523438   19455.3125000
 CG ITER, OVMR, OVMRUB =         100   17493.1757812   19455.3125000
 CG ITER, OVMR, OVMRUB =         101   17501.5937500   19455.3125000
 CG ITER, OVMR, OVMRUB =         102   17523.5000000   19455.3125000
 CG ITER, OVMR, OVMRUB =         103   17543.1367188   19455.3125000
 CG ITER, OVMR, OVMRUB =         104   17564.9121094   19455.3125000
 CG ITER, OVMR, OVMRUB =         105   17579.5175781   19455.3125000
 CG ITER, OVMR, OVMRUB =         106   17592.8496094   19455.3125000
 CG ITER, OVMR, OVMRUB =         107   17609.9140625   19455.3125000
 CG ITER, OVMR, OVMRUB =         108   17627.5195312   19455.3125000
 CG ITER, OVMR, OVMRUB =         109   17643.9062500   19455.3125000
 CG ITER, OVMR, OVMRUB =         110   17659.6347656   19455.3125000
 CG ITER, OVMR, OVMRUB =         111   17671.8925781   19455.3125000
 CG ITER, OVMR, OVMRUB =         112   17689.1425781   19455.3125000
 CG ITER, OVMR, OVMRUB =         113   17700.0820312   19455.3125000
 CG ITER, OVMR, OVMRUB =         114   17718.4277344   19455.3125000
 CG ITER, OVMR, OVMRUB =         115   17737.0898438   19455.3125000
 CG ITER, OVMR, OVMRUB =         116   17748.0820312   19455.3125000
 CG ITER, OVMR, OVMRUB =         117   17761.7460938   19455.3125000
 CG ITER, OVMR, OVMRUB =         118   17775.3535156   19455.3125000
 CG ITER, OVMR, OVMRUB =         119   17789.5156250   19455.3125000
 CG ITER, OVMR, OVMRUB =         120   17802.0878906   19455.3125000
 CG ITER, OVMR, OVMRUB =         121   17816.0859375   19455.3125000
 CG ITER, OVMR, OVMRUB =         122   17826.0058594   19455.3125000
 CG ITER, OVMR, OVMRUB =         123   17839.8691406   19455.3125000
 CG ITER, OVMR, OVMRUB =         124   17851.8691406   19455.3125000
 CG ITER, OVMR, OVMRUB =         125   17863.2675781   19455.3125000
 CG ITER, OVMR, OVMRUB =         126   17877.3652344   19455.3125000
 CG ITER, OVMR, OVMRUB =         127   17888.9062500   19455.3125000
 CG ITER, OVMR, OVMRUB =         128   17901.0078125   19455.3125000
 CG ITER, OVMR, OVMRUB =         129   17913.1992188   19455.3125000
 CG ITER, OVMR, OVMRUB =         130   17926.0976562   19455.3125000
 CG ITER, OVMR, OVMRUB =         131   17935.5800781   19455.3125000
 CG ITER, OVMR, OVMRUB =         132   17947.6542969   19455.3125000
 CG ITER, OVMR, OVMRUB =         133   17956.4101562   19455.3125000
 CG ITER, OVMR, OVMRUB =         134   17967.0585938   19455.3125000
 CG ITER, OVMR, OVMRUB =         135   17975.1425781   19455.3125000
 CG ITER, OVMR, OVMRUB =         136   17981.4843750   19455.3125000
 CG ITER, OVMR, OVMRUB =         137   17991.9980469   19455.3125000
 CG ITER, OVMR, OVMRUB =         138   18001.5644531   19455.3125000
 CG ITER, OVMR, OVMRUB =         139   18007.7128906   19455.3125000
 CG ITER, OVMR, OVMRUB =         140   18012.9511719   19455.3125000
 CG ITER, OVMR, OVMRUB =         141   18020.4101562   19455.3125000
 CG ITER, OVMR, OVMRUB =         142   18025.7812500   19455.3125000
 CG ITER, OVMR, OVMRUB =         143   18036.6503906   19455.3125000
 CG ITER, OVMR, OVMRUB =         144   18044.3417969   19455.3125000
 CG ITER, OVMR, OVMRUB =         145   18045.7285156   19455.3125000
 CG ITER, OVMR, OVMRUB =         146   18045.0292969   19455.3125000
 CG ITER, OVMR, OVMRUB =         147   18048.0429688   19455.3125000
 CG ITER, OVMR, OVMRUB =         148   18048.8105469   19455.3125000
 CG ITER, OVMR, OVMRUB =         149   18052.9746094   19455.3125000
 CG ITER, OVMR, OVMRUB =         150   18056.7148438   19455.3125000
 CG ITER, OVMR, OVMRUB =         151   18059.0585938   19455.3125000
 CG ITER, OVMR, OVMRUB =         152   18064.5117188   19455.3125000
 CG ITER, OVMR, OVMRUB =         153   18069.0019531   19455.3125000
 CG ITER, OVMR, OVMRUB =         154   18069.5605469   19455.3125000
 CG ITER, OVMR, OVMRUB =         155   18072.2734375   19455.3125000
 CG ITER, OVMR, OVMRUB =         156   18072.2734375   19455.3125000
OVLB =   18072.2734375 OVLUB =   19455.3125000 TIME =      50.0699997
